decision_x1=[0,2];
decision_x2=[0,2];
decision_x3=[0,2];
decision_x4=[0,2];
decision_x5=[0,2];
random_y1=[0,2];
constraint_x2_x1=[
0,1,6.8|
0,2,2.2|
1,0,8.5|
1,2,2.8|
2,0,1.5|
2,1,4.9|
];
constraint_x3_x2=[
0,1,3.8|
0,2,2.4|
1,0,5.5|
1,2,6.5|
2,0,2.3|
2,1,1.7|
];
constraint_x4_x2=[
0,1,5.4|
0,2,5.3|
1,0,2|
1,2,5.9|
2,0,4.4|
2,1,8|
];
constraint_x5_x1=[
0,1,3|
0,2,0.72|
1,0,0.24|
1,2,5.3|
2,0,1.9|
2,1,7.7|
];
constraint_x5_x3=[
0,1,6|
0,2,7.1|
1,0,0.66|
1,2,1.9|
2,0,7.6|
2,1,5.8|
];
constraint_x1_y1=[
0,0,6.4|
0,1,1.1|
0,2,9.1|
1,0,7.7|
1,1,1.5|
1,2,5.8|
2,0,3.7|
2,1,4.6|
2,2,3.9|
];
initial_distribution_y1=[0.5,0.29,0.21];
transition_y1=[
0.44,0.39,0.17|
0.39,0.17,0.43|
0.49,0.21,0.31|
];
